* ENCODING=ISO-8859-1
NAME          CPLEX
ROWS
 N  obj1    
 G  c1      
 G  c2      
 G  c3      
 G  c4      
 G  c5      
 G  c6      
 G  c7      
 G  c8      
 G  c9      
 G  c10     
 G  c11     
 G  c12     
 G  c13     
 G  c14     
 G  c15     
 G  c16     
 G  c17     
 G  c18     
 G  c19     
 G  c20     
 G  c21     
 G  c22     
 G  c23     
 G  c24     
 G  c25     
 G  c26     
 G  c27     
 G  c28     
 G  c29     
 G  c30     
 G  c31     
 G  c32     
 G  c33     
 G  c34     
 G  c35     
 G  c36     
 G  c37     
 G  c38     
 G  c39     
 G  c40     
COLUMNS
    MARK0000  'MARKER'                 'INTORG'
    x1        obj1                            1
    x1        c7                            648
    x1        c10                           360
    x1        c25                           871
    x1        c33                           523
    x2        obj1                            1
    x2        c5                            953
    x2        c6                            882
    x2        c17                           380
    x2        c27                           481
    x2        c28                           868
    x2        c34                           844
    x2        c36                           758
    x2        c40                           875
    x3        obj1                            1
    x3        c8                            182
    x3        c15                           136
    x3        c31                           332
    x4        obj1                            1
    x4        c9                            985
    x4        c22                           352
    x5        obj1                            1
    x5        c7                            109
    x5        c19                           479
    x6        obj1                            1
    x6        c1                            550
    x6        c3                            406
    x6        c6                            640
    x7        obj1                            1
    x7        c1                            457
    x7        c13                           220
    x7        c14                           134
    x7        c39                           281
    x8        obj1                            1
    x8        c11                           477
    x8        c14                           402
    x8        c25                           383
    x8        c28                           566
    x8        c31                           828
    x8        c35                           417
    x9        obj1                            1
    x9        c6                            787
    x9        c10                           604
    x9        c22                           909
    x9        c25                           774
    x9        c30                           305
    x10       obj1                            1
    x10       c6                            458
    x10       c18                           533
    x10       c28                           286
    x11       obj1                            1
    x11       c14                           409
    x11       c16                           239
    x12       obj1                            1
    x12       c19                           611
    x12       c29                           412
    x12       c40                           431
    x13       obj1                            1
    x13       c4                            102
    x13       c6                            191
    x14       obj1                            1
    x14       c10                           290
    x14       c25                           432
    x15       obj1                            1
    x15       c4                            102
    x15       c14                           375
    x15       c21                           496
    x15       c36                           701
    x16       obj1                            1
    x16       c20                           143
    x16       c24                           340
    x16       c28                           745
    x16       c35                           518
    x17       obj1                            1
    x17       c5                            618
    x17       c17                           932
    x17       c19                           209
    x17       c23                           353
    x17       c26                           977
    x17       c37                           485
    x18       obj1                            1
    x18       c1                            271
    x18       c14                           262
    x19       obj1                            1
    x19       c2                            139
    x19       c7                            395
    x19       c10                           333
    x19       c24                           408
    x19       c32                           515
    x20       obj1                            1
    x20       c31                           124
    x20       c37                           791
    x21       obj1                            1
    x21       c3                            934
    x21       c16                           250
    x21       c20                           142
    x21       c37                           257
    x21       c38                           227
    x22       obj1                            1
    x22       c7                            126
    x22       c13                           199
    x22       c15                           556
    x22       c21                           556
    x22       c23                           915
    x22       c36                           270
    x22       c40                           529
    x23       obj1                            1
    x23       c3                            323
    x23       c25                           428
    x23       c30                           318
    x24       obj1                            1
    x24       c13                           188
    x25       obj1                            1
    x25       c12                           927
    x25       c27                           279
    x25       c29                           111
    x25       c30                           286
    x26       obj1                            1
    x26       c13                           252
    x26       c19                           563
    x26       c21                           596
    x26       c32                           206
    x27       obj1                            1
    x27       c9                            153
    x27       c13                           129
    x27       c14                           553
    x27       c19                           616
    x27       c21                           450
    x28       obj1                            1
    x28       c2                            409
    x28       c9                            124
    x28       c10                           105
    x28       c24                           514
    x28       c26                           785
    x28       c39                           817
    x29       obj1                            1
    x29       c8                            417
    x29       c11                           808
    x29       c14                           498
    x29       c17                           644
    x29       c19                           587
    x29       c22                           997
    x29       c40                           276
    x30       obj1                            1
    x30       c8                            264
    x30       c19                           798
    x31       obj1                            1
    x31       c6                            963
    x31       c16                           561
    x31       c19                           694
    x31       c28                           265
    x31       c32                           290
    x31       c40                           605
    x32       obj1                            1
    x32       c9                            740
    x32       c10                           323
    x33       obj1                            1
    x33       c14                           683
    x33       c24                           666
    x34       obj1                            1
    x34       c2                            617
    x34       c5                            273
    x34       c13                           264
    x34       c21                           172
    x35       obj1                            1
    x35       c10                           397
    x35       c11                           380
    x35       c17                           772
    x35       c27                           847
    x35       c33                           410
    x36       obj1                            1
    x36       c2                            697
    x36       c14                           160
    x36       c21                           278
    x36       c28                           983
    x36       c32                           172
    x36       c36                           731
    x37       obj1                            1
    x37       c3                            981
    x37       c9                            519
    x37       c10                           742
    x37       c26                           828
    x37       c38                           497
    x38       obj1                            1
    x38       c7                            543
    x38       c26                           294
    x39       obj1                            1
    x39       c16                           768
    x40       obj1                            1
    x40       c1                            704
    x40       c38                           277
    x41       obj1                            1
    x41       c23                           811
    x41       c24                           707
    x41       c29                           187
    x41       c33                           622
    x42       obj1                            1
    x42       c1                            743
    x42       c25                           197
    x42       c26                           136
    x42       c30                           668
    x43       obj1                            1
    x43       c3                            801
    x43       c6                            767
    x43       c39                           821
    x43       c40                           656
    x44       obj1                            1
    x44       c2                            760
    x44       c6                            903
    x44       c10                           193
    x44       c14                           429
    x44       c18                           927
    x44       c19                           847
    x44       c24                           628
    x45       obj1                            1
    x45       c7                            248
    x45       c8                            582
    x45       c16                           704
    x46       obj1                            1
    x46       c2                            249
    x46       c3                            966
    x46       c6                            325
    x46       c8                            587
    x47       obj1                            1
    x47       c9                            760
    x47       c17                           577
    x47       c21                           802
    x47       c23                           173
    x47       c27                           447
    x48       obj1                            1
    x48       c5                            386
    x48       c6                            505
    x48       c12                           867
    x48       c19                           896
    x48       c21                           524
    x48       c29                           620
    x48       c32                           853
    x49       obj1                            1
    x49       c9                            154
    x49       c12                           976
    x49       c25                           704
    x49       c28                           973
    x49       c35                           220
    x50       obj1                            1
    x50       c7                            368
    x50       c15                           392
    x50       c17                           241
    x50       c34                           155
    x51       obj1                            1
    x51       c22                           777
    x51       c25                           311
    x51       c27                           196
    x51       c39                           568
    x52       obj1                            1
    x52       c9                            326
    x52       c17                           962
    x52       c18                           158
    x52       c40                           880
    x53       obj1                            1
    x53       c12                           897
    x53       c34                           309
    x54       obj1                            1
    x54       c1                            336
    x54       c4                            996
    x54       c8                            809
    x54       c15                           582
    x54       c26                           737
    x54       c30                           496
    x54       c35                           664
    x55       obj1                            1
    x55       c21                           648
    x56       obj1                            1
    x56       c5                            608
    x56       c7                            883
    x56       c22                           770
    x56       c24                           279
    x57       obj1                            1
    x57       c7                            623
    x57       c16                           145
    x57       c30                           150
    x58       obj1                            1
    x58       c4                            993
    x58       c10                           219
    x58       c31                           901
    x59       obj1                            1
    x59       c2                            118
    x59       c9                            515
    x59       c21                           887
    x59       c25                           616
    x60       obj1                            1
    x60       c16                           332
    x60       c18                           376
    x60       c27                           468
    x60       c29                           729
    x60       c32                           485
    x60       c34                           559
    x61       obj1                            1
    x61       c37                           316
    x62       obj1                            1
    x62       c9                            733
    x62       c20                           629
    x62       c29                           353
    x62       c33                           472
    x62       c34                           384
    x63       obj1                            1
    x63       c3                            391
    x63       c12                           602
    x63       c19                           575
    x64       obj1                            1
    x64       c36                           699
    x65       obj1                            1
    x65       c3                            270
    x65       c6                            333
    x65       c12                           607
    x65       c28                           911
    x65       c32                           573
    x66       obj1                            1
    x66       c1                            843
    x66       c7                            313
    x66       c12                           554
    x66       c17                           246
    x66       c21                           581
    x67       obj1                            1
    x67       c3                            599
    x67       c29                           164
    x67       c33                           884
    x68       obj1                            1
    x68       c9                            336
    x68       c17                           670
    x68       c20                           537
    x68       c26                           801
    x69       obj1                            1
    x69       c1                            203
    x69       c29                           409
    x69       c33                           356
    x70       obj1                            1
    x70       c1                            860
    x70       c19                           328
    x70       c28                           808
    x70       c35                           210
    x70       c38                           532
    x71       obj1                            1
    x71       c5                            502
    x71       c11                           870
    x71       c14                           395
    x72       obj1                            1
    x72       c7                            265
    x72       c17                           381
    x73       obj1                            1
    x73       c3                            107
    x73       c9                            252
    x73       c28                           803
    x73       c33                           946
    x74       obj1                            1
    x74       c3                            184
    x74       c7                            243
    x74       c24                           133
    x75       obj1                            1
    x75       c17                           680
    x76       obj1                            1
    x76       c25                           599
    x76       c32                           792
    x77       obj1                            1
    x77       c6                            570
    x77       c13                           372
    x77       c20                           531
    x77       c28                           569
    x77       c37                           813
    x78       obj1                            1
    x78       c21                           540
    x78       c34                           216
    x79       obj1                            1
    x79       c16                           793
    x79       c30                           494
    x79       c39                           512
    x80       obj1                            1
    x80       c3                            460
    x80       c17                           570
    x80       c24                           958
    x80       c34                           839
    MARK0001  'MARKER'                 'INTEND'
RHS
    rhs       c1                           2484
    rhs       c2                           1495
    rhs       c3                           3211
    rhs       c4                           1097
    rhs       c5                           1670
    rhs       c6                           3662
    rhs       c7                           2382
    rhs       c8                           1421
    rhs       c9                           2799
    rhs       c10                          1783
    rhs       c11                          1268
    rhs       c12                          2715
    rhs       c13                           812
    rhs       c14                          2150
    rhs       c15                           833
    rhs       c16                          1896
    rhs       c17                          3528
    rhs       c18                           997
    rhs       c19                          3602
    rhs       c20                           991
    rhs       c21                          3265
    rhs       c22                          1903
    rhs       c23                          1126
    rhs       c24                          2317
    rhs       c25                          2658
    rhs       c26                          2279
    rhs       c27                          1359
    rhs       c28                          3889
    rhs       c29                          1493
    rhs       c30                          1359
    rhs       c31                          1093
    rhs       c32                          1943
    rhs       c33                          2107
    rhs       c34                          1653
    rhs       c35                          1015
    rhs       c36                          1580
    rhs       c37                          1331
    rhs       c38                           767
    rhs       c39                          1500
    rhs       c40                          2126
BOUNDS
 LI bnd       x1        0
 LI bnd       x2        0
 LI bnd       x3        0
 LI bnd       x4        0
 LI bnd       x5        0
 LI bnd       x6        0
 LI bnd       x7        0
 LI bnd       x8        0
 LI bnd       x9        0
 LI bnd       x10       0
 LI bnd       x11       0
 LI bnd       x12       0
 LI bnd       x13       0
 LI bnd       x14       0
 LI bnd       x15       0
 LI bnd       x16       0
 LI bnd       x17       0
 LI bnd       x18       0
 LI bnd       x19       0
 LI bnd       x20       0
 LI bnd       x21       0
 LI bnd       x22       0
 LI bnd       x23       0
 LI bnd       x24       0
 LI bnd       x25       0
 LI bnd       x26       0
 LI bnd       x27       0
 LI bnd       x28       0
 LI bnd       x29       0
 LI bnd       x30       0
 LI bnd       x31       0
 LI bnd       x32       0
 LI bnd       x33       0
 LI bnd       x34       0
 LI bnd       x35       0
 LI bnd       x36       0
 LI bnd       x37       0
 LI bnd       x38       0
 LI bnd       x39       0
 LI bnd       x40       0
 LI bnd       x41       0
 LI bnd       x42       0
 LI bnd       x43       0
 LI bnd       x44       0
 LI bnd       x45       0
 LI bnd       x46       0
 LI bnd       x47       0
 LI bnd       x48       0
 LI bnd       x49       0
 LI bnd       x50       0
 LI bnd       x51       0
 LI bnd       x52       0
 LI bnd       x53       0
 LI bnd       x54       0
 LI bnd       x55       0
 LI bnd       x56       0
 LI bnd       x57       0
 LI bnd       x58       0
 LI bnd       x59       0
 LI bnd       x60       0
 LI bnd       x61       0
 LI bnd       x62       0
 LI bnd       x63       0
 LI bnd       x64       0
 LI bnd       x65       0
 LI bnd       x66       0
 LI bnd       x67       0
 LI bnd       x68       0
 LI bnd       x69       0
 LI bnd       x70       0
 LI bnd       x71       0
 LI bnd       x72       0
 LI bnd       x73       0
 LI bnd       x74       0
 LI bnd       x75       0
 LI bnd       x76       0
 LI bnd       x77       0
 LI bnd       x78       0
 LI bnd       x79       0
 LI bnd       x80       0
ENDATA
